NAME: st50
TYPE: TSP
COMMENT: 70-city problem (Smith/Thompson)
DIMENSION: 70
EDGE_WEIGHT_TYPE : EUC_2D
NODE_COORD_SECTION
1.0 112 64
2.0 39 179
3.0 85 28
4.0 81 129
5.0 93 22
6.0 78 104
7.0 113 174
8.0 96 57
9.0 194 64
10.0 169 83
11.0 43 166
12.0 134 79
13.0 34 185
14.0 128 55
15.0 6 145
16.0 17 47
17.0 34 126
18.0 188 50
19.0 31 19
20.0 52 137
21.0 103 3
22.0 116 82
23.0 129 170
24.0 83 39
25.0 14 94
26.0 173 114
27.0 47 44
28.0 138 42
29.0 135 157
30.0 122 74
31.0 129 92
32.0 129 119
33.0 101 107
34.0 126 79
35.0 62 132
36.0 68 19
37.0 184 200
38.0 101 98
39.0 153 1
40.0 175 14
41.0 175 23
42.0 97 100
43.0 152 39
44.0 60 101
45.0 13 72
46.0 36 194
47.0 189 67
48.0 157 52
49.0 90 9
50.0 41 76
EOF

